60
1 0 9
2 0 42
2 1 48
3 0 14
3 1 14
3 2 42
4 0 30
4 1 19
4 2 38
4 3 25
5 0 37
5 1 40
5 2 34
5 3 24
5 4 51
6 0 54
6 1 35
6 2 34
6 3 51
6 4 15
6 5 41
7 0 51
7 1 4
7 2 10
7 3 31
7 4 4
7 5 4
7 6 17
8 0 1
8 1 25
8 2 44
8 3 35
8 4 19
8 5 9
8 6 28
8 7 1
9 0 9
9 1 16
9 2 28
9 3 9
9 4 45
9 5 30
9 6 36
9 7 30
9 8 7
10 0 47
10 1 18
10 2 32
10 3 12
10 4 53
10 5 53
10 6 40
10 7 9
10 8 2
10 9 55
11 0 37
11 1 60
11 2 45
11 3 28
11 4 55
11 5 14
11 6 8
11 7 39
11 8 43
11 9 59
11 10 14
12 0 40
12 1 44
12 2 10
12 3 30
12 4 12
12 5 19
12 6 34
12 7 12
12 8 52
12 9 57
12 10 30
12 11 19
13 0 9
13 1 29
13 2 4
13 3 38
13 4 3
13 5 8
13 6 43
13 7 32
13 8 18
13 9 46
13 10 40
13 11 5
13 12 45
14 0 24
14 1 35
14 2 18
14 3 39
14 4 41
14 5 27
14 6 35
14 7 36
14 8 33
14 9 35
14 10 57
14 11 22
14 12 53
14 13 8
15 0 21
15 1 14
15 2 30
15 3 32
15 4 14
15 5 10
15 6 48
15 7 56
15 8 11
15 9 2
15 10 2
15 11 22
15 12 18
15 13 54
15 14 54
16 0 8
16 1 37
16 2 58
16 3 2
16 4 58
16 5 48
16 6 33
16 7 34
16 8 39
16 9 41
16 10 24
16 11 46
16 12 17
16 13 48
16 14 12
16 15 28
17 0 23
17 1 32
17 2 58
17 3 50
17 4 26
17 5 49
17 6 40
17 7 39
17 8 41
17 9 31
17 10 25
17 11 9
17 12 9
17 13 37
17 14 60
17 15 4
17 16 23
18 0 17
18 1 34
18 2 30
18 3 7
18 4 9
18 5 39
18 6 46
18 7 5
18 8 21
18 9 6
18 10 12
18 11 42
18 12 19
18 13 28
18 14 38
18 15 2
18 16 27
18 17 40
19 0 18
19 1 39
19 2 46
19 3 27
19 4 49
19 5 7
19 6 35
19 7 39
19 8 59
19 9 5
19 10 36
19 11 18
19 12 29
19 13 32
19 14 55
19 15 17
19 16 23
19 17 24
19 18 7
20 0 41
20 1 30
20 2 39
20 3 3
20 4 32
20 5 36
20 6 40
20 7 18
20 8 17
20 9 21
20 10 25
20 11 21
20 12 12
20 13 16
20 14 47
20 15 41
20 16 39
20 17 60
20 18 58
20 19 47
21 0 53
21 1 10
21 2 4
21 3 35
21 4 51
21 5 55
21 6 54
21 7 34
21 8 5
21 9 29
21 10 53
21 11 56
21 12 43
21 13 6
21 14 39
21 15 23
21 16 10
21 17 7
21 18 24
21 19 28
21 20 6
22 0 20
22 1 30
22 2 28
22 3 36
22 4 34
22 5 29
22 6 21
22 7 44
22 8 19
22 9 48
22 10 16
22 11 56
22 12 52
22 13 50
22 14 29
22 15 57
22 16 9
22 17 48
22 18 58
22 19 2
22 20 14
22 21 5
23 0 51
23 1 1
23 2 32
23 3 35
23 4 28
23 5 6
23 6 36
23 7 19
23 8 47
23 9 33
23 10 28
23 11 40
23 12 22
23 13 58
23 14 52
23 15 24
23 16 18
23 17 17
23 18 39
23 19 50
23 20 26
23 21 10
23 22 17
24 0 44
24 1 13
24 2 2
24 3 18
24 4 28
24 5 53
24 6 15
24 7 11
24 8 58
24 9 27
24 10 2
24 11 42
24 12 8
24 13 18
24 14 56
24 15 4
24 16 1
24 17 58
24 18 23
24 19 14
24 20 45
24 21 25
24 22 21
24 23 9
25 0 3
25 1 3
25 2 2
25 3 3
25 4 56
25 5 17
25 6 21
25 7 53
25 8 48
25 9 10
25 10 40
25 11 18
25 12 1
25 13 35
25 14 45
25 15 17
25 16 49
25 17 7
25 18 13
25 19 57
25 20 5
25 21 16
25 22 39
25 23 9
25 24 8
26 0 54
26 1 24
26 2 7
26 3 51
26 4 6
26 5 44
26 6 60
26 7 43
26 8 39
26 9 40
26 10 13
26 11 29
26 12 50
26 13 40
26 14 58
26 15 31
26 16 29
26 17 19
26 18 17
26 19 15
26 20 12
26 21 24
26 22 23
26 23 10
26 24 24
26 25 59
27 0 21
27 1 9
27 2 24
27 3 33
27 4 23
27 5 15
27 6 55
27 7 15
27 8 60
27 9 15
27 10 33
27 11 52
27 12 7
27 13 24
27 14 1
27 15 47
27 16 46
27 17 18
27 18 35
27 19 33
27 20 59
27 21 50
27 22 36
27 23 22
27 24 59
27 25 42
27 26 10
28 0 48
28 1 38
28 2 41
28 3 24
28 4 35
28 5 16
28 6 56
28 7 56
28 8 10
28 9 44
28 10 52
28 11 21
28 12 31
28 13 33
28 14 23
28 15 50
28 16 10
28 17 39
28 18 41
28 19 19
28 20 48
28 21 49
28 22 29
28 23 49
28 24 35
28 25 60
28 26 59
28 27 34
29 0 59
29 1 7
29 2 23
29 3 34
29 4 12
29 5 50
29 6 5
29 7 16
29 8 5
29 9 35
29 10 50
29 11 36
29 12 10
29 13 56
29 14 12
29 15 50
29 16 25
29 17 41
29 18 39
29 19 26
29 20 41
29 21 41
29 22 37
29 23 29
29 24 51
29 25 13
29 26 27
29 27 4
29 28 27
30 0 1
30 1 25
30 2 29
30 3 1
30 4 50
30 5 51
30 6 36
30 7 25
30 8 53
30 9 3
30 10 29
30 11 9
30 12 16
30 13 57
30 14 6
30 15 12
30 16 54
30 17 12
30 18 46
30 19 54
30 20 53
30 21 25
30 22 38
30 23 58
30 24 34
30 25 43
30 26 30
30 27 40
30 28 5
30 29 43
31 0 34
31 1 49
31 2 28
31 3 47
31 4 54
31 5 55
31 6 8
31 7 58
31 8 60
31 9 42
31 10 11
31 11 6
31 12 25
31 13 4
31 14 41
31 15 57
31 16 30
31 17 54
31 18 10
31 19 23
31 20 42
31 21 25
31 22 41
31 23 49
31 24 54
31 25 58
31 26 20
31 27 46
31 28 51
31 29 32
31 30 8
32 0 51
32 1 32
32 2 13
32 3 35
32 4 42
32 5 14
32 6 37
32 7 12
32 8 54
32 9 21
32 10 41
32 11 2
32 12 32
32 13 33
32 14 34
32 15 1
32 16 3
32 17 35
32 18 44
32 19 16
32 20 44
32 21 46
32 22 53
32 23 4
32 24 47
32 25 22
32 26 59
32 27 9
32 28 49
32 29 58
32 30 8
32 31 9
33 0 23
33 1 43
33 2 1
33 3 47
33 4 46
33 5 8
33 6 30
33 7 51
33 8 1
33 9 36
33 10 17
33 11 3
33 12 19
33 13 4
33 14 49
33 15 41
33 16 50
33 17 21
33 18 53
33 19 7
33 20 40
33 21 2
33 22 34
33 23 49
33 24 49
33 25 7
33 26 30
33 27 40
33 28 59
33 29 33
33 30 31
33 31 19
33 32 44
34 0 41
34 1 15
34 2 8
34 3 25
34 4 57
34 5 14
34 6 57
34 7 46
34 8 23
34 9 35
34 10 34
34 11 1
34 12 7
34 13 13
34 14 47
34 15 15
34 16 20
34 17 14
34 18 29
34 19 54
34 20 58
34 21 3
34 22 59
34 23 2
34 24 41
34 25 11
34 26 29
34 27 27
34 28 5
34 29 60
34 30 40
34 31 4
34 32 18
34 33 34
35 0 41
35 1 53
35 2 6
35 3 43
35 4 51
35 5 35
35 6 30
35 7 45
35 8 60
35 9 40
35 10 17
35 11 24
35 12 24
35 13 25
35 14 5
35 15 12
35 16 22
35 17 22
35 18 47
35 19 1
35 20 16
35 21 56
35 22 27
35 23 41
35 24 30
35 25 22
35 26 8
35 27 59
35 28 30
35 29 13
35 30 8
35 31 10
35 32 56
35 33 2
35 34 30
36 0 58
36 1 41
36 2 49
36 3 15
36 4 56
36 5 21
36 6 42
36 7 1
36 8 6
36 9 7
36 10 37
36 11 30
36 12 41
36 13 20
36 14 6
36 15 55
36 16 18
36 17 23
36 18 25
36 19 1
36 20 39
36 21 23
36 22 40
36 23 51
36 24 60
36 25 46
36 26 38
36 27 47
36 28 37
36 29 12
36 30 17
36 31 56
36 32 4
36 33 54
36 34 37
36 35 52
37 0 13
37 1 32
37 2 49
37 3 58
37 4 4
37 5 22
37 6 10
37 7 17
37 8 58
37 9 3
37 10 10
37 11 22
37 12 40
37 13 34
37 14 38
37 15 38
37 16 32
37 17 52
37 18 5
37 19 16
37 20 29
37 21 28
37 22 13
37 23 24
37 24 51
37 25 2
37 26 35
37 27 29
37 28 60
37 29 34
37 30 51
37 31 58
37 32 26
37 33 46
37 34 59
37 35 29
37 36 57
38 0 50
38 1 19
38 2 20
38 3 34
38 4 37
38 5 34
38 6 9
38 7 51
38 8 53
38 9 55
38 10 36
38 11 33
38 12 19
38 13 60
38 14 50
38 15 48
38 16 6
38 17 18
38 18 60
38 19 60
38 20 41
38 21 13
38 22 56
38 23 37
38 24 52
38 25 2
38 26 54
38 27 11
38 28 4
38 29 13
38 30 53
38 31 15
38 32 53
38 33 11
38 34 10
38 35 14
38 36 56
38 37 8
39 0 41
39 1 17
39 2 41
39 3 38
39 4 39
39 5 38
39 6 58
39 7 19
39 8 41
39 9 2
39 10 60
39 11 29
39 12 56
39 13 24
39 14 22
39 15 48
39 16 11
39 17 32
39 18 25
39 19 10
39 20 9
39 21 39
39 22 35
39 23 36
39 24 3
39 25 9
39 26 58
39 27 37
39 28 18
39 29 49
39 30 12
39 31 27
39 32 11
39 33 12
39 34 60
39 35 11
39 36 25
39 37 13
39 38 28
40 0 28
40 1 12
40 2 59
40 3 49
40 4 37
40 5 14
40 6 22
40 7 50
40 8 6
40 9 38
40 10 59
40 11 45
40 12 43
40 13 49
40 14 32
40 15 60
40 16 5
40 17 38
40 18 32
40 19 2
40 20 8
40 21 40
40 22 7
40 23 16
40 24 46
40 25 7
40 26 23
40 27 56
40 28 50
40 29 47
40 30 15
40 31 12
40 32 14
40 33 15
40 34 2
40 35 52
40 36 38
40 37 4
40 38 11
40 39 38
41 0 2
41 1 38
41 2 50
41 3 41
41 4 29
41 5 55
41 6 59
41 7 1
41 8 30
41 9 38
41 10 46
41 11 52
41 12 50
41 13 1
41 14 53
41 15 3
41 16 50
41 17 32
41 18 10
41 19 6
41 20 38
41 21 17
41 22 3
41 23 44
41 24 41
41 25 44
41 26 4
41 27 35
41 28 29
41 29 9
41 30 2
41 31 38
41 32 29
41 33 48
41 34 21
41 35 42
41 36 31
41 37 54
41 38 28
41 39 40
41 40 24
42 0 41
42 1 41
42 2 36
42 3 16
42 4 20
42 5 39
42 6 55
42 7 55
42 8 31
42 9 19
42 10 60
42 11 20
42 12 34
42 13 14
42 14 10
42 15 4
42 16 54
42 17 21
42 18 52
42 19 4
42 20 6
42 21 48
42 22 21
42 23 16
42 24 34
42 25 13
42 26 26
42 27 1
42 28 56
42 29 44
42 30 46
42 31 58
42 32 30
42 33 31
42 34 4
42 35 23
42 36 15
42 37 42
42 38 10
42 39 38
42 40 38
42 41 53
43 0 27
43 1 19
43 2 46
43 3 35
43 4 38
43 5 44
43 6 48
43 7 29
43 8 33
43 9 7
43 10 52
43 11 5
43 12 24
43 13 3
43 14 26
43 15 25
43 16 58
43 17 14
43 18 27
43 19 36
43 20 19
43 21 56
43 22 18
43 23 41
43 24 11
43 25 25
43 26 24
43 27 54
43 28 19
43 29 52
43 30 13
43 31 12
43 32 58
43 33 28
43 34 53
43 35 2
43 36 38
43 37 2
43 38 41
43 39 16
43 40 46
43 41 4
43 42 10
44 0 4
44 1 53
44 2 11
44 3 28
44 4 5
44 5 22
44 6 23
44 7 25
44 8 2
44 9 55
44 10 30
44 11 14
44 12 50
44 13 25
44 14 47
44 15 55
44 16 41
44 17 38
44 18 42
44 19 55
44 20 44
44 21 12
44 22 4
44 23 14
44 24 28
44 25 27
44 26 14
44 27 23
44 28 36
44 29 23
44 30 2
44 31 51
44 32 22
44 33 47
44 34 41
44 35 43
44 36 27
44 37 58
44 38 36
44 39 49
44 40 53
44 41 10
44 42 12
44 43 41
45 0 39
45 1 6
45 2 60
45 3 45
45 4 53
45 5 28
45 6 17
45 7 60
45 8 60
45 9 18
45 10 45
45 11 50
45 12 44
45 13 35
45 14 23
45 15 45
45 16 28
45 17 23
45 18 42
45 19 21
45 20 2
45 21 23
45 22 4
45 23 32
45 24 49
45 25 51
45 26 44
45 27 4
45 28 54
45 29 3
45 30 53
45 31 47
45 32 48
45 33 58
45 34 35
45 35 7
45 36 44
45 37 37
45 38 46
45 39 48
45 40 27
45 41 22
45 42 22
45 43 49
45 44 28
46 0 8
46 1 19
46 2 3
46 3 43
46 4 17
46 5 10
46 6 3
46 7 25
46 8 42
46 9 21
46 10 6
46 11 18
46 12 13
46 13 21
46 14 23
46 15 37
46 16 22
46 17 31
46 18 48
46 19 53
46 20 26
46 21 60
46 22 55
46 23 40
46 24 54
46 25 13
46 26 8
46 27 27
46 28 50
46 29 55
46 30 51
46 31 2
46 32 12
46 33 25
46 34 21
46 35 6
46 36 31
46 37 55
46 38 40
46 39 3
46 40 50
46 41 51
46 42 42
46 43 54
46 44 49
46 45 37
47 0 11
47 1 14
47 2 9
47 3 11
47 4 28
47 5 13
47 6 5
47 7 28
47 8 6
47 9 17
47 10 20
47 11 29
47 12 40
47 13 3
47 14 52
47 15 26
47 16 30
47 17 26
47 18 18
47 19 39
47 20 57
47 21 4
47 22 54
47 23 42
47 24 46
47 25 34
47 26 26
47 27 11
47 28 14
47 29 19
47 30 21
47 31 10
47 32 33
47 33 31
47 34 1
47 35 56
47 36 30
47 37 52
47 38 1
47 39 60
47 40 7
47 41 15
47 42 45
47 43 8
47 44 22
47 45 5
47 46 48
48 0 55
48 1 39
48 2 14
48 3 49
48 4 24
48 5 48
48 6 43
48 7 58
48 8 27
48 9 1
48 10 38
48 11 3
48 12 7
48 13 35
48 14 53
48 15 52
48 16 3
48 17 35
48 18 45
48 19 39
48 20 44
48 21 55
48 22 29
48 23 19
48 24 11
48 25 18
48 26 12
48 27 3
48 28 21
48 29 53
48 30 52
48 31 29
48 32 12
48 33 58
48 34 23
48 35 19
48 36 24
48 37 52
48 38 46
48 39 26
48 40 11
48 41 44
48 42 50
48 43 34
48 44 29
48 45 60
48 46 27
48 47 10
49 0 39
49 1 47
49 2 37
49 3 9
49 4 18
49 5 30
49 6 15
49 7 26
49 8 11
49 9 14
49 10 38
49 11 43
49 12 52
49 13 56
49 14 15
49 15 46
49 16 54
49 17 13
49 18 15
49 19 1
49 20 39
49 21 34
49 22 19
49 23 33
49 24 55
49 25 13
49 26 35
49 27 37
49 28 6
49 29 34
49 30 19
49 31 14
49 32 32
49 33 34
49 34 4
49 35 27
49 36 7
49 37 9
49 38 46
49 39 33
49 40 34
49 41 16
49 42 51
49 43 8
49 44 49
49 45 45
49 46 29
49 47 51
49 48 17
50 0 44
50 1 25
50 2 10
50 3 17
50 4 10
50 5 54
50 6 33
50 7 31
50 8 8
50 9 2
50 10 60
50 11 41
50 12 31
50 13 9
50 14 36
50 15 24
50 16 34
50 17 19
50 18 45
50 19 14
50 20 20
50 21 54
50 22 2
50 23 17
50 24 48
50 25 50
50 26 4
50 27 41
50 28 30
50 29 7
50 30 44
50 31 13
50 32 49
50 33 39
50 34 31
50 35 31
50 36 11
50 37 18
50 38 3
50 39 43
50 40 59
50 41 56
50 42 60
50 43 41
50 44 44
50 45 51
50 46 46
50 47 60
50 48 4
50 49 40
51 0 52
51 1 14
51 2 29
51 3 50
51 4 50
51 5 31
51 6 45
51 7 7
51 8 1
51 9 11
51 10 36
51 11 52
51 12 33
51 13 2
51 14 6
51 15 45
51 16 37
51 17 31
51 18 49
51 19 29
51 20 28
51 21 54
51 22 29
51 23 39
51 24 56
51 25 20
51 26 5
51 27 28
51 28 40
51 29 59
51 30 25
51 31 25
51 32 43
51 33 7
51 34 24
51 35 49
51 36 55
51 37 37
51 38 59
51 39 49
51 40 37
51 41 13
51 42 14
51 43 37
51 44 3
51 45 27
51 46 1
51 47 33
51 48 17
51 49 20
51 50 18
52 0 30
52 1 20
52 2 7
52 3 57
52 4 56
52 5 27
52 6 23
52 7 54
52 8 9
52 9 57
52 10 51
52 11 28
52 12 51
52 13 40
52 14 12
52 15 39
52 16 10
52 17 34
52 18 2
52 19 39
52 20 22
52 21 9
52 22 41
52 23 42
52 24 13
52 25 59
52 26 29
52 27 9
52 28 42
52 29 2
52 30 49
52 31 22
52 32 25
52 33 51
52 34 54
52 35 46
52 36 57
52 37 56
52 38 10
52 39 17
52 40 59
52 41 33
52 42 52
52 43 54
52 44 3
52 45 57
52 46 5
52 47 57
52 48 10
52 49 56
52 50 8
52 51 39
53 0 35
53 1 47
53 2 29
53 3 48
53 4 30
53 5 28
53 6 21
53 7 41
53 8 43
53 9 26
53 10 30
53 11 37
53 12 12
53 13 12
53 14 13
53 15 42
53 16 6
53 17 1
53 18 22
53 19 37
53 20 57
53 21 55
53 22 57
53 23 44
53 24 51
53 25 5
53 26 27
53 27 39
53 28 56
53 29 19
53 30 12
53 31 1
53 32 26
53 33 7
53 34 24
53 35 18
53 36 4
53 37 28
53 38 24
53 39 46
53 40 44
53 41 32
53 42 29
53 43 58
53 44 35
53 45 56
53 46 22
53 47 22
53 48 57
53 49 50
53 50 3
53 51 53
53 52 49
54 0 33
54 1 33
54 2 37
54 3 44
54 4 14
54 5 4
54 6 4
54 7 21
54 8 41
54 9 17
54 10 19
54 11 5
54 12 30
54 13 57
54 14 17
54 15 19
54 16 6
54 17 56
54 18 57
54 19 32
54 20 18
54 21 24
54 22 1
54 23 4
54 24 29
54 25 55
54 26 39
54 27 10
54 28 35
54 29 27
54 30 8
54 31 2
54 32 23
54 33 36
54 34 20
54 35 43
54 36 44
54 37 39
54 38 54
54 39 58
54 40 59
54 41 10
54 42 5
54 43 39
54 44 31
54 45 22
54 46 37
54 47 15
54 48 10
54 49 14
54 50 35
54 51 24
54 52 56
54 53 16
55 0 25
55 1 45
55 2 25
55 3 33
55 4 5
55 5 23
55 6 49
55 7 60
55 8 51
55 9 40
55 10 7
55 11 25
55 12 11
55 13 19
55 14 20
55 15 45
55 16 41
55 17 54
55 18 34
55 19 11
55 20 10
55 21 16
55 22 19
55 23 26
55 24 17
55 25 26
55 26 26
55 27 22
55 28 13
55 29 1
55 30 23
55 31 27
55 32 24
55 33 15
55 34 60
55 35 60
55 36 13
55 37 8
55 38 53
55 39 6
55 40 26
55 41 16
55 42 44
55 43 36
55 44 20
55 45 23
55 46 43
55 47 45
55 48 8
55 49 46
55 50 39
55 51 12
55 52 12
55 53 51
55 54 4
56 0 28
56 1 52
56 2 53
56 3 9
56 4 9
56 5 2
56 6 23
56 7 41
56 8 30
56 9 3
56 10 37
56 11 30
56 12 58
56 13 6
56 14 44
56 15 21
56 16 9
56 17 27
56 18 47
56 19 48
56 20 53
56 21 17
56 22 3
56 23 55
56 24 38
56 25 36
56 26 32
56 27 40
56 28 29
56 29 1
56 30 6
56 31 20
56 32 9
56 33 52
56 34 60
56 35 21
56 36 3
56 37 13
56 38 44
56 39 24
56 40 5
56 41 48
56 42 16
56 43 37
56 44 2
56 45 39
56 46 12
56 47 24
56 48 24
56 49 14
56 50 30
56 51 58
56 52 9
56 53 15
56 54 38
56 55 36
57 0 59
57 1 27
57 2 30
57 3 42
57 4 37
57 5 57
57 6 21
57 7 31
57 8 30
57 9 12
57 10 26
57 11 22
57 12 3
57 13 22
57 14 27
57 15 59
57 16 58
57 17 49
57 18 50
57 19 54
57 20 32
57 21 3
57 22 12
57 23 15
57 24 49
57 25 7
57 26 55
57 27 18
57 28 16
57 29 36
57 30 31
57 31 38
57 32 54
57 33 28
57 34 9
57 35 53
57 36 25
57 37 22
57 38 30
57 39 13
57 40 44
57 41 33
57 42 59
57 43 7
57 44 36
57 45 56
57 46 56
57 47 15
57 48 47
57 49 22
57 50 7
57 51 10
57 52 27
57 53 9
57 54 51
57 55 31
57 56 6
58 0 58
58 1 41
58 2 43
58 3 58
58 4 13
58 5 7
58 6 21
58 7 51
58 8 16
58 9 3
58 10 46
58 11 50
58 12 1
58 13 56
58 14 40
58 15 10
58 16 46
58 17 35
58 18 38
58 19 30
58 20 35
58 21 32
58 22 42
58 23 2
58 24 17
58 25 57
58 26 52
58 27 25
58 28 56
58 29 45
58 30 39
58 31 28
58 32 30
58 33 27
58 34 26
58 35 51
58 36 54
58 37 42
58 38 3
58 39 35
58 40 45
58 41 49
58 42 49
58 43 49
58 44 24
58 45 23
58 46 11
58 47 10
58 48 20
58 49 8
58 50 22
58 51 49
58 52 39
58 53 27
58 54 1
58 55 59
58 56 20
58 57 11
59 0 30
59 1 31
59 2 50
59 3 47
59 4 21
59 5 37
59 6 47
59 7 49
59 8 16
59 9 11
59 10 51
59 11 23
59 12 22
59 13 6
59 14 24
59 15 57
59 16 44
59 17 20
59 18 16
59 19 54
59 20 26
59 21 2
59 22 42
59 23 25
59 24 40
59 25 48
59 26 29
59 27 38
59 28 24
59 29 34
59 30 36
59 31 28
59 32 5
59 33 12
59 34 13
59 35 5
59 36 58
59 37 39
59 38 31
59 39 15
59 40 9
59 41 54
59 42 57
59 43 56
59 44 41
59 45 28
59 46 47
59 47 47
59 48 53
59 49 7
59 50 55
59 51 41
59 52 2
59 53 54
59 54 44
59 55 1
59 56 7
59 57 45
59 58 55
